c colouring generated by benchmark framework
p edge 769 3820
v 1 2
v 2 3
v 3 3
v 4 0
v 5 1
v 6 3
v 7 1
v 8 4
v 9 0
v 10 1
v 11 1
v 12 3
v 13 0
v 14 3
v 15 0
v 16 2
v 17 1
v 18 1
v 19 0
v 20 4
v 21 1
v 22 1
v 23 4
v 24 4
v 25 2
v 26 4
v 27 3
v 28 1
v 29 4
v 30 2
v 31 0
v 32 0
v 33 1
v 34 4
v 35 3
v 36 3
v 37 3
v 38 3
v 39 4
v 40 3
v 41 3
v 42 3
v 43 0
v 44 2
v 45 1
v 46 1
v 47 0
v 48 4
v 49 2
v 50 3
v 51 4
v 52 4
v 53 2
v 54 3
v 55 3
v 56 0
v 57 1
v 58 2
v 59 1
v 60 4
v 61 0
v 62 1
v 63 0
v 64 0
v 65 0
v 66 2
v 67 2
v 68 3
v 69 2
v 70 0
v 71 0
v 72 4
v 73 1
v 74 4
v 75 1
v 76 2
v 77 0
v 78 2
v 79 4
v 80 0
v 81 2
v 82 1
v 83 4
v 84 1
v 85 2
v 86 2
v 87 4
v 88 3
v 89 0
v 90 2
v 91 2
v 92 2
v 93 0
v 94 2
v 95 3
v 96 2
v 97 1
v 98 3
v 99 1
v 100 2
v 101 1
v 102 4
v 103 2
v 104 0
v 105 3
v 106 4
v 107 1
v 108 1
v 109 2
v 110 4
v 111 2
v 112 1
v 113 4
v 114 0
v 115 1
v 116 2
v 117 4
v 118 4
v 119 3
v 120 0
v 121 1
v 122 0
v 123 1
v 124 2
v 125 0
v 126 2
v 127 0
v 128 1
v 129 4
v 130 3
v 131 2
v 132 2
v 133 2
v 134 2
v 135 1
v 136 2
v 137 2
v 138 2
v 139 0
v 140 4
v 141 2
v 142 1
v 143 2
v 144 0
v 145 4
v 146 2
v 147 0
v 148 1
v 149 4
v 150 1
v 151 4
v 152 2
v 153 1
v 154 2
v 155 2
v 156 1
v 157 0
v 158 1
v 159 0
v 160 1
v 161 1
v 162 2
v 163 2
v 164 4
v 165 4
v 166 3
v 167 0
v 168 3
v 169 3
v 170 0
v 171 3
v 172 3
v 173 0
v 174 2
v 175 2
v 176 0
v 177 3
v 178 0
v 179 0
v 180 3
v 181 2
v 182 4
v 183 2
v 184 1
v 185 1
v 186 2
v 187 2
v 188 1
v 189 3
v 190 1
v 191 1
v 192 2
v 193 0
v 194 4
v 195 2
v 196 0
v 197 0
v 198 2
v 199 3
v 200 4
v 201 3
v 202 4
v 203 3
v 204 2
v 205 0
v 206 3
v 207 0
v 208 2
v 209 0
v 210 2
v 211 1
v 212 0
v 213 2
v 214 4
v 215 3
v 216 0
v 217 2
v 218 1
v 219 0
v 220 0
v 221 3
v 222 3
v 223 0
v 224 0
v 225 2
v 226 4
v 227 0
v 228 2
v 229 0
v 230 2
v 231 4
v 232 1
v 233 3
v 234 4
v 235 1
v 236 2
v 237 4
v 238 2
v 239 3
v 240 0
v 241 3
v 242 3
v 243 2
v 244 3
v 245 2
v 246 1
v 247 1
v 248 2
v 249 4
v 250 3
v 251 3
v 252 4
v 253 1
v 254 1
v 255 1
v 256 0
v 257 3
v 258 2
v 259 1
v 260 2
v 261 3
v 262 3
v 263 1
v 264 0
v 265 0
v 266 2
v 267 1
v 268 1
v 269 3
v 270 2
v 271 4
v 272 0
v 273 0
v 274 0
v 275 3
v 276 0
v 277 4
v 278 4
v 279 2
v 280 2
v 281 2
v 282 0
v 283 2
v 284 2
v 285 2
v 286 0
v 287 3
v 288 4
v 289 3
v 290 3
v 291 0
v 292 2
v 293 2
v 294 1
v 295 2
v 296 2
v 297 2
v 298 1
v 299 1
v 300 1
v 301 1
v 302 0
v 303 4
v 304 0
v 305 1
v 306 1
v 307 3
v 308 2
v 309 0
v 310 4
v 311 1
v 312 0
v 313 4
v 314 3
v 315 3
v 316 0
v 317 0
v 318 4
v 319 4
v 320 2
v 321 2
v 322 2
v 323 0
v 324 2
v 325 3
v 326 3
v 327 1
v 328 2
v 329 3
v 330 3
v 331 1
v 332 2
v 333 2
v 334 4
v 335 4
v 336 2
v 337 3
v 338 1
v 339 2
v 340 1
v 341 0
v 342 0
v 343 0
v 344 1
v 345 3
v 346 1
v 347 1
v 348 0
v 349 1
v 350 4
v 351 1
v 352 2
v 353 1
v 354 4
v 355 3
v 356 0
v 357 1
v 358 0
v 359 2
v 360 3
v 361 1
v 362 2
v 363 3
v 364 0
v 365 2
v 366 0
v 367 4
v 368 2
v 369 2
v 370 0
v 371 3
v 372 1
v 373 0
v 374 0
v 375 1
v 376 3
v 377 0
v 378 2
v 379 1
v 380 3
v 381 2
v 382 4
v 383 4
v 384 1
v 385 2
v 386 0
v 387 0
v 388 1
v 389 0
v 390 1
v 391 0
v 392 1
v 393 1
v 394 3
v 395 0
v 396 1
v 397 2
v 398 4
v 399 0
v 400 0
v 401 1
v 402 1
v 403 4
v 404 3
v 405 2
v 406 3
v 407 2
v 408 3
v 409 2
v 410 3
v 411 0
v 412 0
v 413 1
v 414 1
v 415 3
v 416 1
v 417 1
v 418 1
v 419 0
v 420 1
v 421 0
v 422 0
v 423 0
v 424 2
v 425 0
v 426 4
v 427 4
v 428 0
v 429 0
v 430 3
v 431 2
v 432 0
v 433 4
v 434 1
v 435 0
v 436 2
v 437 0
v 438 0
v 439 1
v 440 0
v 441 3
v 442 2
v 443 2
v 444 0
v 445 1
v 446 4
v 447 2
v 448 0
v 449 3
v 450 3
v 451 0
v 452 3
v 453 1
v 454 3
v 455 4
v 456 0
v 457 1
v 458 3
v 459 1
v 460 2
v 461 2
v 462 0
v 463 1
v 464 2
v 465 2
v 466 4
v 467 2
v 468 2
v 469 3
v 470 1
v 471 1
v 472 2
v 473 0
v 474 4
v 475 3
v 476 3
v 477 1
v 478 3
v 479 2
v 480 2
v 481 4
v 482 1
v 483 1
v 484 4
v 485 2
v 486 2
v 487 1
v 488 2
v 489 2
v 490 1
v 491 2
v 492 4
v 493 1
v 494 0
v 495 4
v 496 1
v 497 0
v 498 0
v 499 2
v 500 2
v 501 3
v 502 1
v 503 1
v 504 1
v 505 2
v 506 1
v 507 2
v 508 4
v 509 3
v 510 1
v 511 1
v 512 2
v 513 1
v 514 0
v 515 0
v 516 2
v 517 2
v 518 0
v 519 1
v 520 4
v 521 4
v 522 0
v 523 2
v 524 2
v 525 4
v 526 3
v 527 3
v 528 0
v 529 4
v 530 2
v 531 1
v 532 2
v 533 0
v 534 1
v 535 4
v 536 2
v 537 4
v 538 0
v 539 2
v 540 1
v 541 4
v 542 3
v 543 3
v 544 1
v 545 0
v 546 1
v 547 1
v 548 3
v 549 1
v 550 0
v 551 3
v 552 1
v 553 1
v 554 2
v 555 2
v 556 2
v 557 1
v 558 0
v 559 0
v 560 0
v 561 3
v 562 0
v 563 2
v 564 2
v 565 3
v 566 4
v 567 3
v 568 0
v 569 0
v 570 1
v 571 0
v 572 3
v 573 0
v 574 1
v 575 0
v 576 2
v 577 0
v 578 0
v 579 1
v 580 0
v 581 2
v 582 3
v 583 4
v 584 2
v 585 1
v 586 3
v 587 3
v 588 2
v 589 4
v 590 1
v 591 0
v 592 1
v 593 1
v 594 0
v 595 1
v 596 2
v 597 0
v 598 3
v 599 0
v 600 2
v 601 3
v 602 2
v 603 3
v 604 4
v 605 3
v 606 1
v 607 0
v 608 0
v 609 2
v 610 1
v 611 0
v 612 2
v 613 0
v 614 2
v 615 2
v 616 0
v 617 2
v 618 3
v 619 0
v 620 1
v 621 0
v 622 0
v 623 1
v 624 2
v 625 0
v 626 0
v 627 1
v 628 1
v 629 3
v 630 2
v 631 3
v 632 3
v 633 1
v 634 2
v 635 0
v 636 1
v 637 2
v 638 2
v 639 3
v 640 0
v 641 1
v 642 2
v 643 2
v 644 4
v 645 0
v 646 2
v 647 1
v 648 0
v 649 2
v 650 0
v 651 1
v 652 2
v 653 0
v 654 1
v 655 1
v 656 0
v 657 1
v 658 0
v 659 1
v 660 0
v 661 1
v 662 2
v 663 0
v 664 0
v 665 1
v 666 1
v 667 2
v 668 4
v 669 3
v 670 0
v 671 1
v 672 3
v 673 3
v 674 0
v 675 0
v 676 3
v 677 0
v 678 3
v 679 0
v 680 3
v 681 1
v 682 0
v 683 1
v 684 1
v 685 0
v 686 1
v 687 4
v 688 1
v 689 1
v 690 1
v 691 3
v 692 0
v 693 2
v 694 0
v 695 3
v 696 1
v 697 1
v 698 2
v 699 1
v 700 3
v 701 3
v 702 4
v 703 3
v 704 3
v 705 3
v 706 1
v 707 2
v 708 2
v 709 3
v 710 2
v 711 1
v 712 3
v 713 0
v 714 3
v 715 3
v 716 0
v 717 2
v 718 0
v 719 2
v 720 4
v 721 0
v 722 3
v 723 2
v 724 3
v 725 2
v 726 3
v 727 4
v 728 2
v 729 1
v 730 2
v 731 2
v 732 4
v 733 0
v 734 2
v 735 0
v 736 0
v 737 0
v 738 0
v 739 3
v 740 3
v 741 1
v 742 4
v 743 2
v 744 1
v 745 4
v 746 0
v 747 3
v 748 4
v 749 2
v 750 3
v 751 3
v 752 0
v 753 0
v 754 0
v 755 0
v 756 0
v 757 2
v 758 1
v 759 2
v 760 3
v 761 4
v 762 2
v 763 2
v 764 1
v 765 1
v 766 1
v 767 0
v 768 2
v 769 1
